ATSP_Exercise.lp
\ENCODING=ISO-8859-1
\Problem name: ilog.cplex

Minimize
 obj: 1.79769313486232e+308 x(1)(1)#0 + 33.6 x(1)(2)#1 + 14 x(1)(3)#2
      + 40.9 x(1)(4)#3 + 14.5 x(1)(5)#4 + 11.5 x(1)(6)#5 + 34.7 x(2)(1)#6
      + 1.79769313486232e+308 x(2)(2)#7 + 21.7 x(2)(3)#8 + 13 x(2)(4)#9
      + 20.2 x(2)(5)#10 + 23.4 x(2)(6)#11 + 14.8 x(3)(1)#12 + 21.5 x(3)(2)#13
      + 1.79769313486232e+308 x(3)(3)#14 + 29.3 x(3)(4)#15 + 2 x(3)(5)#16
      + 3.9 x(3)(6)#17 + 41.7 x(4)(1)#18 + 13.1 x(4)(2)#19 + 29.4 x(4)(3)#20
      + 1.79769313486232e+308 x(4)(4)#21 + 27.6 x(4)(5)#22 + 30.3 x(4)(6)#23
      + 15 x(5)(1)#24 + 20.2 x(5)(2)#25 + 2 x(5)(3)#26 + 27.5 x(5)(4)#27
      + 1.79769313486232e+308 x(5)(5)#28 + 3.9 x(5)(6)#29 + 12 x(6)(1)#30
      + 22.8 x(6)(2)#31 + 2 x(6)(3)#32 + 30.1 x(6)(4)#33 + 4 x(6)(5)#34
      + 1.79769313486232e+308 x(6)(6)#35
Subject To
 c1:  x(2)(1)#6 + x(3)(1)#12 + x(4)(1)#18 + x(5)(1)#24 + x(6)(1)#30  = 1
 c3:  x(1)(2)#1 + x(3)(2)#13 + x(4)(2)#19 + x(5)(2)#25 + x(6)(2)#31  = 1
 c5:  x(1)(3)#2 + x(2)(3)#8 + x(4)(3)#20 + x(5)(3)#26 + x(6)(3)#32  = 1
 c7:  x(1)(4)#3 + x(2)(4)#9 + x(3)(4)#15 + x(5)(4)#27 + x(6)(4)#33  = 1
 c9:  x(1)(5)#4 + x(2)(5)#10 + x(3)(5)#16 + x(4)(5)#22 + x(6)(5)#34  = 1
 c11: x(1)(6)#5 + x(2)(6)#11 + x(3)(6)#17 + x(4)(6)#23 + x(5)(6)#29  = 1
 c13: x(1)(2)#1 + x(1)(3)#2 + x(1)(4)#3 + x(1)(5)#4 + x(1)(6)#5  = 1
 c15: x(2)(1)#6 + x(2)(3)#8 + x(2)(4)#9 + x(2)(5)#10 + x(2)(6)#11  = 1
 c17: x(3)(1)#12 + x(3)(2)#13 + x(3)(4)#15 + x(3)(5)#16 + x(3)(6)#17  = 1
 c19: x(4)(1)#18 + x(4)(2)#19 + x(4)(3)#20 + x(4)(5)#22 + x(4)(6)#23  = 1
 c21: x(5)(1)#24 + x(5)(2)#25 + x(5)(3)#26 + x(5)(4)#27 + x(5)(6)#29  = 1
 c23: x(6)(1)#30 + x(6)(2)#31 + x(6)(3)#32 + x(6)(4)#33 + x(6)(5)#34  = 1
 c25: 5 x(2)(3)#8 + x37#36 - x38#37 <= 4
 c27: 5 x(2)(4)#9 + x37#36 - x39#38 <= 4
 c29: 5 x(2)(5)#10 + x37#36 - x41#39 <= 4
 c31: 5 x(2)(6)#11 + x37#36 - x43#40 <= 4
 c33: 5 x(3)(2)#13 - x37#36 + x38#37 <= 4
 c35: 5 x(3)(4)#15 + x38#37 - x39#38 <= 4
 c37: 5 x(3)(5)#16 + x38#37 - x41#39 <= 4
 c39: 5 x(3)(6)#17 + x38#37 - x43#40 <= 4
 c41: 5 x(4)(2)#19 - x37#36 + x39#38 <= 4
 c43: 5 x(4)(3)#20 - x38#37 + x39#38 <= 4
 c45: 5 x(4)(5)#22 + x39#38 - x41#39 <= 4
 c47: 5 x(4)(6)#23 + x39#38 - x43#40 <= 4
 c49: 5 x(5)(2)#25 - x37#36 + x41#39 <= 4
 c51: 5 x(5)(3)#26 - x38#37 + x41#39 <= 4
 c53: 5 x(5)(4)#27 - x39#38 + x41#39 <= 4
 c55: 5 x(5)(6)#29 + x41#39 - x43#40 <= 4
 c57: 5 x(6)(2)#31 - x37#36 + x43#40 <= 4
 c59: 5 x(6)(3)#32 - x38#37 + x43#40 <= 4
 c61: 5 x(6)(4)#33 - x39#38 + x43#40 <= 4
 c63: 5 x(6)(5)#34 - x41#39 + x43#40 <= 4
Bounds
 0 <= x(1)(1)#0 <= 1
 0 <= x(1)(2)#1 <= 1
 0 <= x(1)(3)#2 <= 1
 0 <= x(1)(4)#3 <= 1
 0 <= x(1)(5)#4 <= 1
 0 <= x(1)(6)#5 <= 1
 0 <= x(2)(1)#6 <= 1
 0 <= x(2)(2)#7 <= 1
 0 <= x(2)(3)#8 <= 1
 0 <= x(2)(4)#9 <= 1
 0 <= x(2)(5)#10 <= 1
 0 <= x(2)(6)#11 <= 1
 0 <= x(3)(1)#12 <= 1
 0 <= x(3)(2)#13 <= 1
 0 <= x(3)(3)#14 <= 1
 0 <= x(3)(4)#15 <= 1
 0 <= x(3)(5)#16 <= 1
 0 <= x(3)(6)#17 <= 1
 0 <= x(4)(1)#18 <= 1
 0 <= x(4)(2)#19 <= 1
 0 <= x(4)(3)#20 <= 1
 0 <= x(4)(4)#21 <= 1
 0 <= x(4)(5)#22 <= 1
 0 <= x(4)(6)#23 <= 1
 0 <= x(5)(1)#24 <= 1
 0 <= x(5)(2)#25 <= 1
 0 <= x(5)(3)#26 <= 1
 0 <= x(5)(4)#27 <= 1
 0 <= x(5)(5)#28 <= 1
 0 <= x(5)(6)#29 <= 1
 0 <= x(6)(1)#30 <= 1
 0 <= x(6)(2)#31 <= 1
 0 <= x(6)(3)#32 <= 1
 0 <= x(6)(4)#33 <= 1
 0 <= x(6)(5)#34 <= 1
 0 <= x(6)(6)#35 <= 1
Binaries
 x(1)(1)#0  x(1)(2)#1  x(1)(3)#2  x(1)(4)#3  x(1)(5)#4  x(1)(6)#5  x(2)(1)#6 
 x(2)(2)#7  x(2)(3)#8  x(2)(4)#9  x(2)(5)#10  x(2)(6)#11  x(3)(1)#12 
 x(3)(2)#13  x(3)(3)#14  x(3)(4)#15  x(3)(5)#16  x(3)(6)#17  x(4)(1)#18 
 x(4)(2)#19  x(4)(3)#20  x(4)(4)#21  x(4)(5)#22  x(4)(6)#23  x(5)(1)#24 
 x(5)(2)#25  x(5)(3)#26  x(5)(4)#27  x(5)(5)#28  x(5)(6)#29  x(6)(1)#30 
 x(6)(2)#31  x(6)(3)#32  x(6)(4)#33  x(6)(5)#34  x(6)(6)#35 
End
