ATSP_Exercise.log
Tried aggregator 1 time.
MIP Presolve eliminated 0 rows and 6 columns.
Reduced MIP has 32 rows, 35 columns, and 120 nonzeros.
Reduced MIP has 30 binaries, 0 generals, 0 SOSs, and 0 indicators.
Presolve time = 0.00 sec. (0.06 ticks)
Found incumbent of value 94.800000 after 0.00 sec. (0.17 ticks)
Probing time = 0.00 sec. (0.03 ticks)
Tried aggregator 1 time.
Reduced MIP has 32 rows, 35 columns, and 120 nonzeros.
Reduced MIP has 30 binaries, 0 generals, 0 SOSs, and 0 indicators.
Presolve time = 0.00 sec. (0.05 ticks)
Probing time = 0.00 sec. (0.04 ticks)
Clique table members: 22.
MIP emphasis: balance optimality and feasibility.
MIP search method: dynamic search.
Parallel mode: deterministic, using up to 4 threads.
Root relaxation solution time = 0.00 sec. (0.05 ticks)

        Nodes                                         Cuts/
   Node  Left     Objective  IInf  Best Integer    Best Bound    ItCnt     Gap

*     0+    0                           94.8000        0.0000       16  100.00%
      0     0       67.2000     4       94.8000       67.2000       16   29.11%
      0     0       87.6400     8       94.8000       Cuts: 6       21    7.55%
      0     0       87.8114    10       94.8000       Cuts: 4       32    7.37%
      0     0       87.8308     9       94.8000       Cuts: 9       36    7.35%
      0     0       87.9500     8       94.8000       Cuts: 6       41    7.23%
      0     0       88.1000     8       94.8000       Cuts: 4       45    7.07%
      0     0       88.1000     8       94.8000       Cuts: 6       47    7.07%
      0     0       88.1000     8       94.8000       Cuts: 3       48    7.07%
*     0+    0                           93.0000       88.1000       48    5.27%
*     0+    0                           90.4000       88.1000       48    2.54%
      0     0        cutoff             90.4000       90.4000       48    0.00%
Elapsed time = 0.02 sec. (2.08 ticks, tree = 0.00 MB, solutions = 3)

Clique cuts applied:  2
Implied bound cuts applied:  3
Flow cuts applied:  2
Mixed integer rounding cuts applied:  1
Zero-half cuts applied:  3

Root node processing (before b&c):
  Real time             =    0.02 sec. (2.09 ticks)
Parallel b&c, 4 threads:
  Real time             =    0.00 sec. (0.00 ticks)
  Sync time (average)   =    0.00 sec.
  Wait time (average)   =    0.00 sec.
                          ------------
Total (root+branch&cut) =    0.02 sec. (2.09 ticks)

Solution status = Optimal

Optimal value = 90.4
x[0][5] = 1.0
x[1][3] = 1.0
x[2][4] = 1.0
x[3][0] = 1.0
x[4][1] = 1.0
x[5][2] = 1.0
